
Gurobi 7.0.2 (mac64, Python) logging started Wed Sep 12 17:47:28 2018


Gurobi 7.0.2 (mac64, Python) logging started Wed Sep 12 17:50:31 2018


Gurobi 7.0.2 (mac64, Python) logging started Wed Sep 12 17:56:34 2018


Gurobi 7.0.2 (mac64, Python) logging started Wed Sep 12 17:57:11 2018


Gurobi 7.0.2 (mac64, Python) logging started Wed Sep 12 17:58:55 2018


Gurobi 7.0.2 (mac64, Python) logging started Wed Sep 12 18:04:19 2018


Gurobi 7.0.2 (mac64, Python) logging started Thu Sep 13 09:43:10 2018


Gurobi 7.0.2 (mac64, Python) logging started Thu Sep 13 09:46:29 2018


Gurobi 7.0.2 (mac64, Python) logging started Thu Sep 13 09:58:30 2018


Gurobi 7.0.2 (mac64, Python) logging started Thu Sep 13 10:02:30 2018


Gurobi 7.0.2 (mac64, Python) logging started Thu Sep 13 10:06:09 2018


Gurobi 7.0.2 (mac64, Python) logging started Thu Sep 13 10:07:26 2018


Gurobi 7.0.2 (mac64, Python) logging started Thu Sep 13 10:09:55 2018


Gurobi 7.0.2 (mac64, Python) logging started Thu Sep 13 10:10:19 2018


Gurobi 7.0.2 (mac64, Python) logging started Thu Sep 13 10:16:12 2018


Gurobi 7.0.2 (mac64, Python) logging started Thu Sep 13 10:16:31 2018


Gurobi 7.0.2 (mac64, Python) logging started Thu Sep 13 10:17:01 2018


Gurobi 7.0.2 (mac64, Python) logging started Thu Sep 13 10:19:35 2018


Gurobi 7.0.2 (mac64, Python) logging started Thu Sep 13 10:20:13 2018


Gurobi 7.0.2 (mac64, Python) logging started Thu Sep 13 10:20:47 2018


Gurobi 7.0.2 (mac64, Python) logging started Thu Sep 13 10:21:08 2018


Gurobi 7.0.2 (mac64, Python) logging started Thu Sep 13 10:24:19 2018


Gurobi 7.0.2 (mac64, Python) logging started Thu Sep 13 10:30:12 2018


Gurobi 7.0.2 (mac64, Python) logging started Thu Sep 13 10:30:51 2018


Gurobi 7.0.2 (mac64, Python) logging started Thu Sep 13 10:33:44 2018


Gurobi 7.0.2 (mac64, Python) logging started Thu Sep 13 10:34:38 2018


Gurobi 7.0.2 (mac64, Python) logging started Thu Sep 13 10:35:53 2018


Gurobi 7.0.2 (mac64, Python) logging started Thu Sep 13 10:40:46 2018


Gurobi 7.0.2 (mac64, Python) logging started Thu Sep 13 11:16:16 2018


Gurobi 7.0.2 (mac64, Python) logging started Thu Sep 13 11:16:53 2018


Gurobi 7.0.2 (mac64, Python) logging started Thu Sep 13 11:18:32 2018


Gurobi 7.0.2 (mac64, Python) logging started Thu Sep 13 11:20:33 2018


Gurobi 7.0.2 (mac64, Python) logging started Thu Sep 13 11:27:37 2018


Gurobi 7.0.2 (mac64, Python) logging started Thu Sep 13 11:32:36 2018


Gurobi 7.0.2 (mac64, Python) logging started Thu Sep 13 12:02:10 2018


Gurobi 7.0.2 (mac64, Python) logging started Thu Sep 13 12:07:01 2018


Gurobi 7.0.2 (mac64, Python) logging started Thu Sep 13 12:09:58 2018


Gurobi 7.0.2 (mac64, Python) logging started Thu Sep 13 12:14:52 2018


Gurobi 7.0.2 (mac64, Python) logging started Thu Sep 13 12:29:04 2018


Gurobi 7.0.2 (mac64, Python) logging started Thu Sep 13 12:29:31 2018


Gurobi 7.0.2 (mac64, Python) logging started Thu Sep 13 13:51:12 2018


Gurobi 7.0.2 (mac64, Python) logging started Thu Sep 13 13:56:23 2018


Gurobi 7.0.2 (mac64, Python) logging started Thu Sep 13 13:56:48 2018


Gurobi 7.0.2 (mac64, Python) logging started Thu Sep 13 13:59:03 2018


Gurobi 7.0.2 (mac64, Python) logging started Thu Sep 13 13:59:15 2018


Gurobi 7.0.2 (mac64, Python) logging started Thu Sep 13 13:59:24 2018


Gurobi 7.0.2 (mac64, Python) logging started Thu Sep 13 14:04:02 2018


Gurobi 7.0.2 (mac64, Python) logging started Thu Sep 13 14:04:29 2018


Gurobi 7.0.2 (mac64, Python) logging started Thu Sep 13 14:05:08 2018


Gurobi 7.0.2 (mac64, Python) logging started Thu Sep 13 14:05:24 2018


Gurobi 7.0.2 (mac64, Python) logging started Thu Sep 13 14:07:50 2018


Gurobi 7.0.2 (mac64, Python) logging started Thu Sep 13 14:08:15 2018


Gurobi 7.0.2 (mac64, Python) logging started Thu Sep 13 14:09:37 2018


Gurobi 7.0.2 (mac64, Python) logging started Thu Sep 13 14:11:25 2018


Gurobi 7.0.2 (mac64, Python) logging started Thu Sep 13 14:12:04 2018


Gurobi 7.0.2 (mac64, Python) logging started Thu Sep 13 14:12:12 2018


Gurobi 7.0.2 (mac64, Python) logging started Thu Sep 13 14:12:20 2018


Gurobi 7.0.2 (mac64, Python) logging started Thu Sep 13 14:12:54 2018


Gurobi 7.0.2 (mac64, Python) logging started Thu Sep 13 14:13:57 2018


Gurobi 7.0.2 (mac64, Python) logging started Thu Sep 13 14:20:41 2018


Gurobi 7.0.2 (mac64, Python) logging started Thu Sep 13 14:21:42 2018


Gurobi 7.0.2 (mac64, Python) logging started Thu Sep 13 14:21:48 2018


Gurobi 7.0.2 (mac64, Python) logging started Thu Sep 13 14:32:23 2018


Gurobi 7.0.2 (mac64, Python) logging started Thu Sep 13 14:32:56 2018


Gurobi 7.0.2 (mac64, Python) logging started Thu Sep 13 14:34:43 2018


Gurobi 7.0.2 (mac64, Python) logging started Thu Sep 13 14:36:40 2018


Gurobi 7.0.2 (mac64, Python) logging started Thu Sep 13 14:44:34 2018


Gurobi 7.0.2 (mac64, Python) logging started Thu Sep 13 14:45:43 2018


Gurobi 7.0.2 (mac64, Python) logging started Thu Sep 13 14:46:06 2018


Gurobi 7.0.2 (mac64, Python) logging started Thu Sep 13 15:19:24 2018


Gurobi 7.0.2 (mac64, Python) logging started Thu Sep 13 15:37:29 2018


Gurobi 7.0.2 (mac64, Python) logging started Thu Sep 13 15:54:04 2018


Gurobi 7.0.2 (mac64, Python) logging started Thu Sep 13 16:14:06 2018


Gurobi 7.0.2 (mac64, Python) logging started Thu Sep 13 16:34:23 2018


Gurobi 7.0.2 (mac64, Python) logging started Thu Sep 13 17:12:00 2018

